

*************************************************************

   NEOS Server Version 6.0
   Job#     : 15892837
   Password : HbSqXvrU
   User     : 
   Solver   : milp:Gurobi:AMPL
   Start    : 2025-04-16 04:29:40
   End      : 2025-04-16 04:29:43
   Host     : prod-sub-1.neos-server.org

   Disclaimer:

   This information is provided without any express or
   implied warranty. In particular, there is no warranty
   of any kind concerning the fitness of this
   information for any particular purpose.

   Announcements:
*************************************************************
You are using the solver gurobi_ampl.
Checking ampl.mod for gurobi_options...
Checking ampl.com for gurobi_options...
Executing AMPL.
processing data.
processing commands.
Executing on prod-exec-7.neos-server.org
C = 9

set N := 1 2 3 4 5;

:   P    W   B    :=
1   10   3   2
2    5   2   3
3    7   3   2
4    6   4   2
5    1   1   5
;

subject to C_capacity:
	3*X[1] + 2*X[2] + 3*X[3] + 4*X[4] + X[5] <= 9;

maximize objective_function:
	10*X[1] + 5*X[2] + 7*X[3] + 6*X[4] + X[5];


"option presolve 10;" used, but "option presolve 2;" would suffice.
5 variables, all integer
1 constraint, all linear; 5 nonzeros
	1 inequality constraint
1 linear objective; 5 nonzeros.

Gurobi 12.0.1:   tech:threads = 4
Set parameter LogToConsole to value 1
  tech:outlev = 1

AMPL MP initial flat model has 5 variables (5 integer, 0 binary);
Objectives: 1 linear; 
Constraints:  1 linear;

AMPL MP final model has 5 variables (5 integer, 0 binary);
Objectives: 1 linear; 
Constraints:  1 linear;


Set parameter InfUnbdInfo to value 1
Gurobi Optimizer version 12.0.1 build v12.0.1rc0 (linux64 - "Rocky Linux 8.10 (Green Obsidian)")

CPU model: Intel(R) Xeon(R) Gold 5218 CPU @ 2.30GHz, instruction set [SSE2|AVX|AVX2|AVX512]
Thread count: 32 physical cores, 64 logical processors, using up to 4 threads

Non-default parameters:
InfUnbdInfo  1
Threads  4

Optimize a model with 1 rows, 5 columns and 5 nonzeros
Model fingerprint: 0x51f398e0
Variable types: 0 continuous, 5 integer (0 binary)
Coefficient statistics:
  Matrix range     [1e+00, 4e+00]
  Objective range  [1e+00, 1e+01]
  Bounds range     [2e+00, 5e+00]
  RHS range        [9e+00, 9e+00]
Found heuristic solution: objective 26.0000000
Presolve removed 1 rows and 5 columns
Presolve time: 0.00s
Presolve: All rows and columns removed

Explored 0 nodes (0 simplex iterations) in 0.00 seconds (0.00 work units)
Thread count was 1 (of 64 available processors)

Solution count 2: 27 26 

Optimal solution found (tolerance 1.00e-04)
Best objective 2.700000000000e+01, best bound 2.700000000000e+01, gap 0.0000%
Gurobi 12.0.1: optimal solution; objective 27
0 simplex iterations
objective_function = 27

X [*] :=
1  2
2  0
3  1
4  0
5  0
;

NEOS Server Home
